tsp_instances/TSP50/instance5.tsp
NODE_COORD_SECTION
0 186 197
1 182 187
2 126 122
3 84 82
4 167 140
5 49 44
6 9 180
7 48 30
8 34 90
9 157 17
10 161 109
11 76 48
12 181 161
13 38 195
14 187 114
15 73 84
16 153 183
17 147 79
18 119 107
19 42 93
20 32 194
21 169 84
22 136 70
23 19 127
24 125 123
25 93 47
26 51 187
27 22 112
28 108 137
29 110 103
30 33 116
31 73 135
32 141 116
33 75 79
34 108 24
35 126 70
36 143 92
37 191 192
38 137 59
39 25 127
40 159 26
41 141 190
42 196 122
43 146 26
44 122 106
45 101 46
46 139 78
47 125 119
48 122 113
49 86 147
