tsp_instances/TSP50/instance5.opt.tour
TOUR_SECTION
1
17
42
29
50
32
27
14
21
7
24
40
31
28
9
20
16
4
34
6
8
12
26
46
35
44
10
41
39
36
23
47
18
37
45
30
19
49
48
25
3
33
11
22
15
43
5
13
2
38
-1